
Log started (V11.0.0) Wed May 14 22:47:27 2008

Tried aggregator 1 time.
Reduced MIP has 140 rows, 4001 columns, and 8040 nonzeros.
Presolve time =    0.03 sec.
Clique table members: 100.
MIP emphasis: balance optimality and feasibility.
MIP search method: dynamic search.
Parallel mode: none, using 1 thread.
Root relaxation solution time =    0.17 sec.

        Nodes                                         Cuts/
   Node  Left     Objective  IInf  Best Integer     Best Node    ItCnt     Gap

*     0+    0                        10972.0000      250.6125      408   97.72%
*     0+    0                          302.0000      250.6125      408   17.02%
      0     0      251.8912    71      302.0000      Fract: 5      515   16.59%
*     0+    0                          301.0000      251.8912      515   16.32%
      0     0      275.0294    85      301.0000   MIRcuts: 39     1680    8.63%
      0     0      275.0301    97      301.0000   MIRcuts: 34     1871    8.63%
      0     0      275.0311   116      301.0000      Cuts: 35     1989    8.63%
*     0+    0                          300.0000      275.0311     1989    8.32%
      0     2      275.0311   116      300.0000      275.0311     1989    8.32%
    100    74      276.4693    73      300.0000      275.0435     8012    8.32%
    200   137      276.0000    65      300.0000      275.0435    15369    8.32%
    300   201      276.0000    62      300.0000      275.0435    20924    8.32%
    400   259      276.4841   102      300.0000      275.0435    28113    8.32%
    500   322      276.0000    60      300.0000      275.0435    33088    8.32%

Cover cuts applied:  28
Flow cuts applied:  3
Mixed integer rounding cuts applied:  49
Zero-half cuts applied:  4
Gomory fractional cuts applied:  1

Solution pool: 4 solutions saved.

MIP - Integer optimal solution:  Objective = 3.0000000000e+002
Solution time =   18.64 sec.  Iterations = 34179  Nodes = 511 (328)


Incumbent solution
Variable Name           Solution Value
Cmax                        300.000000
X_1_19                        1.000000
X_2_6                         1.000000
X_3_10                        1.000000
X_4_30                        1.000000
X_5_37                        1.000000
X_6_3                         1.000000
X_7_28                        1.000000
X_8_7                         1.000000
X_9_15                        1.000000
X_10_31                       1.000000
X_11_38                       1.000000
X_12_17                       1.000000
X_13_18                       1.000000
X_14_26                       1.000000
X_15_15                       1.000000
X_16_8                        1.000000
X_17_17                       1.000000
X_18_21                       1.000000
X_19_19                       1.000000
X_20_14                       1.000000
X_21_9                        1.000000
X_22_3                        1.000000
X_23_12                       1.000000
X_24_5                        1.000000
X_25_1                        1.000000
X_26_1                        1.000000
X_27_36                       1.000000
X_28_34                       1.000000
X_29_38                       1.000000
X_30_18                       1.000000
X_31_7                        1.000000
X_32_21                       1.000000
X_33_27                       1.000000
X_34_22                       1.000000
X_35_23                       1.000000
X_36_7                        1.000000
X_37_36                       1.000000
X_38_13                       1.000000
X_39_12                       1.000000
X_40_34                       1.000000
X_41_13                       1.000000
X_42_1                        1.000000
X_43_6                        1.000000
X_44_14                       1.000000
X_45_2                        1.000000
X_46_39                       1.000000
X_47_19                       1.000000
X_48_13                       1.000000
X_49_11                       1.000000
X_50_39                       1.000000
X_51_37                       1.000000
X_52_27                       1.000000
X_53_16                       1.000000
X_54_14                       1.000000
X_55_29                       1.000000
X_56_24                       1.000000
X_57_26                       1.000000
X_58_32                       1.000000
X_59_20                       1.000000
X_60_23                       1.000000
X_61_33                       1.000000
X_62_10                       1.000000
X_63_4                        1.000000
X_64_12                       1.000000
X_65_40                       1.000000
X_66_32                       1.000000
X_67_28                       1.000000
X_68_11                       1.000000
X_69_25                       1.000000
X_70_22                       1.000000
X_71_4                        1.000000
X_72_33                       1.000000
X_73_29                       1.000000
X_74_25                       1.000000
X_75_37                       1.000000
X_76_9                        1.000000
X_77_38                       1.000000
X_78_2                        1.000000
X_79_23                       1.000000
X_80_36                       1.000000
X_81_33                       1.000000
X_82_31                       1.000000
X_83_8                        1.000000
X_84_17                       1.000000
X_85_20                       1.000000
X_86_9                        1.000000
X_87_40                       1.000000
X_88_30                       1.000000
X_89_15                       1.000000
X_90_2                        1.000000
X_91_16                       1.000000
X_92_8                        1.000000
X_93_27                       1.000000
X_94_5                        1.000000
X_95_35                       1.000000
X_96_16                       1.000000
X_97_21                       1.000000
X_98_22                       1.000000
X_99_35                       1.000000
X_100_24                      1.000000
All other variables in the range 1-4001 are 0.
